DIMENSION: 8
EDGE_WEIGHT_TYPE: EXPLICIT
EDGE_WEIGHT_FORMAT: FULL_MATRIX
EDGE_WEIGHT_SECTION:
32767 32767 32767 32767 79 32767 32767 97 
32767 32767 61 32767 40 68 32767 37 
32767 61 32767 87 32767 32767 32767 93 
32767 32767 87 32767 32767 3 32767 19 
79 40 32767 32767 32767 32767 32767 32767 
32767 68 32767 3 32767 32767 32767 32767 
32767 32767 32767 32767 32767 32767 32767 68 
97 37 93 19 32767 32767 68 32767 
EOF